Instance Name : r201
Date : 2022-07-18
Solution
Route 1 : 52 69 30 90 10 20 66 32 70 1
Route 2 : 33 65 71 9 51 81 79 78 34 35 68 77
Route 3 : 28 12 29 76 50 3 54 26
Route 4 : 95 59 92 98 14 38 44 16 61 86 85 99 94 6 96 97 13 58
Route 5 : 5 83 45 82 47 36 49 46 48
Route 6 : 42 15 2 73 21 40 53 87 57 43 37 100 91 93
Route 7 : 27 31 63 64 11 19 62 88 7 18 8 84 17 60 89
Route 8 : 72 39 67 23 75 41 22 56 74 4 55 25 24 80
